
nbSections=4;
nbReclaimer=3;

nbVessel=15;
nbTask=21;

Q=[1 1 2];
P=[	9	16	20	8	16	10	19	7	12	16	9	9	10	9	12	13	17	13	17	9	9								];
len=[	5	8	10	4	8	5	10	4	6	8	5	5	5	5	6	7	9	7	9	5	5								];
ArrivalTime=[	1	54	29	55	46	9	55	43	74	84	62	92	95	10	93														];
L=[	6	5	4	9	3	8	7	6	8	10	3	5	7	6	10														];
weight=[	1	4	4	5	4	7	8	10	3	10	6	6	1	1	8														];
Ls=[	10	9	8	7																									];
																													
dist=[[	1	3	2	3	],																								
[	2	2	2	2	],																								
																													
[	3	1	1	1	]];																								
				
																					
																					
																							
																					
																						




B=[1 13 26 38 51 63 76 89 101 114 126 139 151 164];
E=[7 20 32 44 57 69 83 94 108 120 133 145 158 168];




AssVessel=[1 2 3 4 5 6 7 8 9 10 11 12 13 14 15 1 2 3 4 5 6 ];
